;  time  = 600
;  terms = 121
;  score = 0.42105263157894735
(set-logic QF_FP)
(declare-const x0 (_ FloatingPoint 8 24))
(declare-const x1 (_ FloatingPoint 8 24))
(declare-const x2 (_ FloatingPoint 8 24))
(declare-const x3 (_ FloatingPoint 8 24))
(declare-const x4 (_ FloatingPoint 8 24))
(declare-const x5 (_ FloatingPoint 8 24))
(declare-const x6 (_ FloatingPoint 8 24))
(declare-const x7 (_ FloatingPoint 8 24))
(declare-const x8 (_ FloatingPoint 8 24))
(declare-const x9 (_ FloatingPoint 8 24))
(declare-const x10 (_ FloatingPoint 8 24))
(declare-const x11 (_ FloatingPoint 8 24))
(declare-const x12 (_ FloatingPoint 8 24))
(declare-const x13 (_ FloatingPoint 8 24))
(declare-const x14 (_ FloatingPoint 8 24))
(assert (fp.isSubnormal (fp.add RNE (fp.mul RNE (fp.neg (fp.mul RNE x12 (fp.add RNE x0 (fp.neg (fp.neg (fp.sub RNE x7 (fp.mul RNE x12 x2))))))) (fp.add RNE (fp.sub RNE (fp.abs (fp.sub RNE (fp.mul RNE (fp.abs (fp.abs x13)) (fp.add RNE (fp.abs x11) (fp.add RNE x7 x12))) (fp.neg (fp.sub RNE (fp.sub RNE x0 x11) (fp.sub RNE x3 x13))))) x9) (fp.mul RNE (fp.add RNE (fp.add RNE (fp.mul RNE x3 (fp.abs (fp.neg x13))) (fp.mul RNE (fp.add RNE x13 (fp.neg x8)) x4)) (fp.neg (fp.add RNE (fp.mul RNE (fp.sub RNE x6 x13) (fp.neg x12)) (fp.sub RNE (fp.add RNE x6 x13) x2)))) (fp.neg (fp.mul RNE (fp.neg x11) (fp.mul RNE x3 x10)))))) (fp.add RNE (fp.abs x3) (fp.sub RNE (fp.neg (fp.add RNE (fp.mul RNE x5 (fp.sub RNE x1 (fp.abs (fp.sub RNE x7 x0)))) (fp.mul RNE (fp.neg (fp.abs (fp.sub RNE x9 x5))) (fp.abs (fp.add RNE (fp.add RNE x6 x9) (fp.mul RNE x11 x0)))))) (fp.sub RNE (fp.mul RNE x2 (fp.neg x11)) (fp.sub RNE (fp.add RNE (fp.add RNE (fp.mul RNE x4 (fp.add RNE x11 x14)) x1) x12) (fp.sub RNE x14 (fp.abs (fp.sub RNE x12 x7))))))))))
(check-sat)